p edge 50 619
e 1 2
e 1 3
e 1 4
e 1 6
e 1 7
e 1 10
e 1 12
e 1 14
e 1 18
e 1 20
e 1 21
e 1 22
e 1 25
e 1 27
e 1 30
e 1 33
e 1 35
e 1 36
e 1 37
e 1 39
e 1 41
e 1 42
e 1 44
e 1 48
e 1 50
e 2 3
e 2 7
e 2 8
e 2 13
e 2 14
e 2 15
e 2 19
e 2 20
e 2 22
e 2 24
e 2 25
e 2 26
e 2 27
e 2 28
e 2 31
e 2 36
e 2 37
e 2 39
e 2 44
e 2 45
e 2 46
e 2 47
e 2 49
e 2 50
e 3 5
e 3 11
e 3 13
e 3 14
e 3 17
e 3 18
e 3 19
e 3 20
e 3 24
e 3 25
e 3 27
e 3 28
e 3 29
e 3 30
e 3 31
e 3 36
e 3 37
e 3 38
e 3 39
e 3 40
e 3 41
e 3 44
e 3 45
e 3 46
e 3 49
e 3 50
e 4 5
e 4 6
e 4 11
e 4 13
e 4 15
e 4 18
e 4 19
e 4 20
e 4 24
e 4 28
e 4 29
e 4 31
e 4 32
e 4 36
e 4 38
e 4 40
e 4 41
e 4 43
e 4 44
e 4 45
e 4 46
e 4 47
e 4 48
e 4 49
e 4 50
e 5 6
e 5 7
e 5 9
e 5 11
e 5 15
e 5 21
e 5 22
e 5 24
e 5 25
e 5 26
e 5 27
e 5 29
e 5 33
e 5 34
e 5 38
e 5 41
e 5 44
e 5 46
e 5 48
e 5 50
e 6 7
e 6 10
e 6 11
e 6 12
e 6 13
e 6 17
e 6 18
e 6 19
e 6 20
e 6 21
e 6 23
e 6 24
e 6 25
e 6 26
e 6 28
e 6 31
e 6 33
e 6 35
e 6 36
e 6 37
e 6 41
e 6 42
e 6 43
e 6 44
e 6 45
e 7 9
e 7 11
e 7 13
e 7 14
e 7 19
e 7 21
e 7 25
e 7 28
e 7 30
e 7 31
e 7 32
e 7 35
e 7 37
e 7 38
e 7 40
e 7 41
e 7 42
e 7 43
e 7 44
e 7 45
e 7 47
e 7 49
e 7 50
e 8 10
e 8 11
e 8 13
e 8 16
e 8 17
e 8 19
e 8 20
e 8 21
e 8 22
e 8 23
e 8 24
e 8 26
e 8 27
e 8 28
e 8 30
e 8 31
e 8 32
e 8 33
e 8 35
e 8 37
e 8 39
e 8 41
e 8 43
e 8 44
e 8 46
e 8 48
e 8 49
e 9 12
e 9 13
e 9 18
e 9 22
e 9 23
e 9 25
e 9 28
e 9 30
e 9 31
e 9 32
e 9 36
e 9 38
e 9 39
e 9 41
e 9 44
e 9 48
e 9 49
e 10 11
e 10 14
e 10 16
e 10 17
e 10 19
e 10 20
e 10 22
e 10 26
e 10 31
e 10 38
e 10 46
e 10 49
e 11 14
e 11 15
e 11 20
e 11 22
e 11 23
e 11 25
e 11 26
e 11 29
e 11 31
e 11 34
e 11 35
e 11 38
e 11 39
e 11 42
e 11 46
e 11 49
e 12 13
e 12 15
e 12 19
e 12 20
e 12 21
e 12 22
e 12 26
e 12 28
e 12 29
e 12 33
e 12 36
e 12 41
e 12 42
e 12 43
e 12 47
e 12 48
e 12 49
e 12 50
e 13 23
e 13 24
e 13 25
e 13 27
e 13 28
e 13 30
e 13 31
e 13 32
e 13 33
e 13 34
e 13 35
e 13 37
e 13 38
e 13 41
e 13 43
e 13 46
e 13 48
e 13 49
e 13 50
e 14 15
e 14 16
e 14 18
e 14 20
e 14 21
e 14 26
e 14 28
e 14 29
e 14 30
e 14 31
e 14 34
e 14 35
e 14 38
e 14 39
e 14 41
e 14 42
e 14 43
e 14 47
e 14 48
e 14 50
e 15 16
e 15 17
e 15 19
e 15 23
e 15 24
e 15 26
e 15 27
e 15 28
e 15 30
e 15 34
e 15 36
e 15 39
e 15 40
e 15 41
e 15 43
e 15 44
e 15 46
e 15 47
e 15 50
e 16 17
e 16 20
e 16 24
e 16 25
e 16 26
e 16 28
e 16 29
e 16 32
e 16 34
e 16 35
e 16 38
e 16 39
e 16 40
e 16 42
e 16 43
e 16 44
e 16 45
e 16 46
e 16 47
e 16 48
e 16 49
e 17 18
e 17 20
e 17 22
e 17 24
e 17 25
e 17 26
e 17 27
e 17 33
e 17 37
e 17 38
e 17 39
e 17 40
e 17 41
e 17 44
e 17 45
e 17 47
e 17 48
e 18 19
e 18 20
e 18 23
e 18 24
e 18 26
e 18 27
e 18 28
e 18 30
e 18 31
e 18 35
e 18 36
e 18 37
e 18 38
e 18 39
e 18 40
e 18 41
e 18 43
e 18 45
e 18 49
e 18 50
e 19 21
e 19 22
e 19 23
e 19 24
e 19 26
e 19 28
e 19 30
e 19 32
e 19 35
e 19 36
e 19 37
e 19 38
e 19 39
e 19 40
e 19 41
e 19 42
e 19 45
e 19 49
e 20 21
e 20 23
e 20 25
e 20 27
e 20 28
e 20 30
e 20 34
e 20 35
e 20 41
e 20 46
e 20 47
e 20 48
e 20 49
e 21 23
e 21 24
e 21 29
e 21 31
e 21 32
e 21 33
e 21 35
e 21 38
e 21 41
e 21 42
e 21 44
e 21 45
e 21 46
e 21 47
e 21 48
e 21 50
e 22 24
e 22 27
e 22 29
e 22 32
e 22 33
e 22 34
e 22 37
e 22 39
e 22 40
e 22 41
e 22 42
e 22 43
e 22 44
e 22 50
e 23 24
e 23 25
e 23 26
e 23 28
e 23 29
e 23 36
e 23 38
e 23 39
e 23 40
e 23 43
e 23 44
e 23 47
e 23 48
e 23 49
e 23 50
e 24 25
e 24 28
e 24 29
e 24 30
e 24 31
e 24 32
e 24 33
e 24 34
e 24 37
e 24 38
e 24 39
e 24 42
e 24 43
e 24 46
e 25 26
e 25 27
e 25 29
e 25 30
e 25 31
e 25 32
e 25 33
e 25 36
e 25 37
e 25 38
e 25 39
e 25 46
e 25 48
e 25 49
e 25 50
e 26 27
e 26 30
e 26 34
e 26 35
e 26 36
e 26 41
e 26 42
e 26 43
e 26 49
e 26 50
e 27 28
e 27 31
e 27 37
e 27 39
e 27 40
e 27 41
e 27 42
e 27 46
e 27 48
e 27 49
e 28 29
e 28 31
e 28 34
e 28 37
e 28 38
e 28 39
e 28 40
e 28 42
e 28 49
e 29 30
e 29 31
e 29 32
e 29 34
e 29 37
e 29 38
e 29 41
e 29 44
e 29 46
e 29 49
e 29 50
e 30 31
e 30 32
e 30 33
e 30 34
e 30 35
e 30 36
e 30 37
e 30 39
e 30 40
e 30 42
e 30 44
e 30 45
e 30 47
e 30 48
e 30 49
e 31 32
e 31 33
e 31 38
e 31 39
e 31 40
e 31 42
e 31 44
e 31 46
e 31 49
e 31 50
e 32 34
e 32 36
e 32 37
e 32 40
e 32 41
e 32 44
e 32 45
e 32 46
e 32 49
e 33 34
e 33 37
e 33 39
e 33 40
e 33 41
e 33 42
e 33 43
e 33 48
e 33 49
e 34 36
e 34 39
e 34 40
e 34 41
e 34 44
e 34 46
e 34 47
e 34 49
e 35 40
e 35 41
e 35 42
e 35 43
e 35 45
e 35 49
e 36 37
e 36 44
e 36 46
e 36 50
e 37 40
e 37 41
e 37 42
e 37 45
e 37 47
e 37 48
e 37 49
e 37 50
e 38 43
e 38 45
e 38 48
e 38 49
e 38 50
e 39 41
e 39 44
e 39 45
e 40 41
e 40 43
e 40 44
e 40 45
e 41 46
e 41 47
e 41 48
e 41 49
e 42 45
e 43 44
e 43 45
e 43 48
e 43 49
e 44 45
e 44 47
e 44 48
e 44 49
e 45 46
e 45 48
e 45 49
e 46 47
e 48 50
e 49 50
